1610047
53,50,28,44,14,10,18,57,33,52,22,31,38,67,7,43,46,34,55,26,66,11,64,6,41,25,30,29,60,23,49,19,5,40,56,12,42,32,1,54,13,65,45,58,15,9,17,27,2,48,20,4,47,24,61,3,21,63,16,59,36,8,68,35,51,39,62,37